1039	653	774	1125	267	554	441	940	363	863
903	995	430	119	355	0	171	1077	816	1171
144	230	984	1039	899	469	311	821	83	0
827	457	304	626	527	761	686	0	1003	940
363	1077	524	0	98	686	591	754	268	186
1125	0	604	860	186	267	375	684	524	798
624	144	863	527	430	929	1028	94	719	1100
562	304	253	171	0	375	98	477	624	719
0	518	684	311	774	850	240	392	908	1003
227	375	1124	69	984	1065	761	562	457	618
